RT is False
Default write of storage_offers_DA.csv just to have a file (but constraint should be inactive)
Reading model...
...model read.
creating competitive generators file...
...competitive generators recorded.
Loading data...
.. day-ahead data read.
Compiling instance...
...instance created.
Creating Offer Mitigation (model will solve as dispatch if TRUE)...
NOTE: storage offers will not be mitigated
...storage offer mitigation file created
Converting model to MPEC...
...converted
NOTE: initial MIP solve with only storage competitive to get feasible solution
Solving...

Welcome to IBM(R) ILOG(R) CPLEX(R) Interactive Optimizer 12.9.0.0
  with Simplex, Mixed Integer & Barrier Optimizers
5725-A06 5725-A29 5724-Y48 5724-Y49 5724-Y54 5724-Y55 5655-Y21
Copyright IBM Corp. 1988, 2019.  All Rights Reserved.

Type 'help' for a list of available commands.
Type 'help' followed by a command name for more
information on commands.

CPLEX> Logfile 'cplex.log' closed.
Logfile 'C:\Users\llavin\Desktop\test85\logs\tmpvwh61hi4.cplex.log' open.
CPLEX> New value for parallel optimization mode: -1
CPLEX> New value for mixed integer optimality gap tolerance: 0.05
CPLEX> New value for deterministic time limit in ticks: 100000
CPLEX> Problem 'C:\Users\llavin\Desktop\test85\logs\tmpj3lp69s2.pyomo.lp' read.
Read time = 0.23 sec. (14.72 ticks)
CPLEX> Problem name         : C:\Users\llavin\Desktop\test85\logs\tmpj3lp69s2.pyomo.lp
Objective sense      : Maximize
Variables            :   53803  [Nneg: 1,  Box: 21998,  Free: 4464,
                                 Binary: 27340]
Objective nonzeros   :    9058
Linear constraints   :  123205  [Less: 41346,  Greater: 59096,  Equal: 22763]
  Nonzeros           :  289263
  RHS nonzeros       :   67447

Variables            : Min LB: -5000.000        Max UB: 1000000.       
Objective nonzeros   : Min   : 0.1000000        Max   : 2500.000       
Linear constraints   :
  Nonzeros           : Min   : 0.1000000        Max   : 1000000.       
  RHS nonzeros       : Min   : 0.1000000        Max   : 1000000.       
CPLEX> CPXPARAM_Parallel                                -1
CPXPARAM_DetTimeLimit                            100000
CPXPARAM_MIP_Tolerances_MIPGap                   0.050000000000000003
Tried aggregator 3 times.
MIP Presolve eliminated 88975 rows and 19270 columns.
MIP Presolve added 3339 rows and 0 columns.
MIP Presolve modified 24728 coefficients.
Aggregator did 12944 substitutions.
Reduced MIP has 24625 rows, 21006 columns, and 67828 nonzeros.
Reduced MIP has 8295 binaries, 0 generals, 0 SOSs, and 0 indicators.
Presolve time = 0.28 sec. (166.86 ticks)
Probing fixed 398 vars, tightened 3932 bounds.
Probing time = 0.06 sec. (17.87 ticks)
Tried aggregator 2 times.
MIP Presolve eliminated 894 rows and 799 columns.
MIP Presolve modified 3078 coefficients.
Aggregator did 37 substitutions.
Reduced MIP has 23694 rows, 20170 columns, and 65115 nonzeros.
Reduced MIP has 7897 binaries, 0 generals, 0 SOSs, and 0 indicators.
Presolve time = 0.11 sec. (93.22 ticks)
Probing fixed 0 vars, tightened 286 bounds.
Probing time = 0.13 sec. (21.28 ticks)
Clique table members: 43655.
MIP emphasis: balance optimality and feasibility.
MIP search method: dynamic search.
Parallel mode: opportunistic, using up to 32 threads.
Root relaxation solution time = 0.38 sec. (574.58 ticks)

        Nodes                                         Cuts/
   Node  Left     Objective  IInf  Best Integer    Best Bound    ItCnt     Gap

      0     0     7473.0066   127                   7473.0066     5435         
*     0+    0                         4283.3358     7473.0066            74.47%
      0     0     7473.0066    17     4283.3358      Cuts: 56     5460   74.47%
      0     0     7438.2072    18     4283.3358      Cuts: 30     5484   73.65%
      0     0     7224.4167    19     4283.3358      Cuts: 64     5520   68.66%
      0     0     6882.0006    23     4283.3358      Cuts: 45     5558   60.67%
      0     0     6423.8576    28     4283.3358      Cuts: 36     5594   49.97%
      0     0     6380.7747    21     4283.3358      Cuts: 47     5609   48.97%
      0     0     6378.3634    24     4283.3358      Cuts: 12     5616   48.91%
      0     0     6372.1920    20     4283.3358       Cuts: 4     5623   48.77%
      0     0     6372.0595    20     4283.3358       Cuts: 3     5625   48.76%
      0     0     6368.2360    22     4283.3358   Flowcuts: 1     5628   35.10%
      0     4     5596.4311    18     4283.3358       Cuts: 4     5697   18.94%
Elapsed time = 6.00 sec. (3055.68 ticks, tree = 0.02 MB, solutions = 1)

Implied bound cuts applied:  12
Flow cuts applied:  54
Mixed integer rounding cuts applied:  36
Gomory fractional cuts applied:  19

Root node processing (before b&c):
  Real time             =    4.73 sec. (3001.38 ticks)
Parallel b&c, 32 threads:
  Real time             =    1.38 sec. (150.88 ticks)
  Sync time (average)   =    0.69 sec.
  Wait time (average)   =    0.00 sec.
                          ------------
Total (root+branch&cut) =    6.11 sec. (3152.26 ticks)

Solution pool: 1 solution saved.

MIP - Integer optimal, tolerance (0.05/1e-06):  Objective =  4.2833357718e+03
Current MIP best bound =  4.4281308571e+03 (gap = 144.795, 3.38%)
Solution time =    6.13 sec.  Iterations = 5807  Nodes = 13 (7)
Deterministic time = 3152.41 ticks  (514.68 ticks/sec)

CPLEX> Incumbent solution written to file 'C:\Users\llavin\Desktop\test85\logs\tmpmgunf3ej.cplex.sol'.
CPLEX> NOTE: no warmstart specified for MIP iteration, default behavior is true
NOTE: resolving with all competitive generators using storage-only solution to warmstart
Solving...

Welcome to IBM(R) ILOG(R) CPLEX(R) Interactive Optimizer 12.9.0.0
  with Simplex, Mixed Integer & Barrier Optimizers
5725-A06 5725-A29 5724-Y48 5724-Y49 5724-Y54 5724-Y55 5655-Y21
Copyright IBM Corp. 1988, 2019.  All Rights Reserved.

Type 'help' for a list of available commands.
Type 'help' followed by a command name for more
information on commands.

CPLEX> Logfile 'cplex.log' closed.
Logfile 'C:\Users\llavin\Desktop\test85\logs\tmp82ioo7j2.cplex.log' open.
CPLEX> New value for parallel optimization mode: -1
CPLEX> New value for mixed integer optimality gap tolerance: 0.05
CPLEX> New value for deterministic time limit in ticks: 100000
CPLEX> Problem 'C:\Users\llavin\Desktop\test85\logs\tmp4htwgbk9.pyomo.lp' read.
Read time = 0.22 sec. (14.75 ticks)
CPLEX> MIP start file 'C:\Users\llavin\Desktop\test85\logs\tmpvcnlq5bv.cplex.mst' read.
CPLEX> Problem name         : C:\Users\llavin\Desktop\test85\logs\tmp4htwgbk9.pyomo.lp
Objective sense      : Maximize
Variables            :   54523  [Nneg: 1,  Box: 22718,  Free: 4464,
                                 Binary: 27340]
Objective nonzeros   :    9757
Linear constraints   :  123205  [Less: 41346,  Greater: 59096,  Equal: 22763]
  Nonzeros           :  289263
  RHS nonzeros       :   67447

Variables            : Min LB: -5000.000        Max UB: 1000000.       
Objective nonzeros   : Min   : 0.1000000        Max   : 2500.000       
Linear constraints   :
  Nonzeros           : Min   : 0.1000000        Max   : 1000000.       
  RHS nonzeros       : Min   : 0.1000000        Max   : 1000000.       
CPLEX> CPXPARAM_Parallel                                -1
CPXPARAM_DetTimeLimit                            100000
CPXPARAM_MIP_Tolerances_MIPGap                   0.050000000000000003
Warning:  No solution found from 1 MIP starts.
Retaining values of one MIP start for possible repair.
Tried aggregator 3 times.
MIP Presolve eliminated 88975 rows and 19990 columns.
MIP Presolve added 3339 rows and 0 columns.
MIP Presolve modified 24728 coefficients.
Aggregator did 12944 substitutions.
Reduced MIP has 24625 rows, 21006 columns, and 67828 nonzeros.
Reduced MIP has 8295 binaries, 0 generals, 0 SOSs, and 0 indicators.
Presolve time = 0.28 sec. (167.21 ticks)
Probing fixed 398 vars, tightened 3932 bounds.
Probing time = 0.06 sec. (17.87 ticks)
Tried aggregator 2 times.
MIP Presolve eliminated 894 rows and 799 columns.
MIP Presolve modified 3078 coefficients.
Aggregator did 37 substitutions.
Reduced MIP has 23694 rows, 20170 columns, and 65115 nonzeros.
Reduced MIP has 7897 binaries, 0 generals, 0 SOSs, and 0 indicators.
Presolve time = 0.11 sec. (93.22 ticks)
Probing fixed 0 vars, tightened 286 bounds.
Probing time = 0.13 sec. (21.28 ticks)
Clique table members: 43655.
MIP emphasis: balance optimality and feasibility.
MIP search method: dynamic search.
Parallel mode: opportunistic, using up to 32 threads.
Root relaxation solution time = 0.45 sec. (640.54 ticks)

        Nodes                                         Cuts/
   Node  Left     Objective  IInf  Best Integer    Best Bound    ItCnt     Gap

      0     0   105524.3163   367                 105524.3163     6048         
      0     0   104638.1304   218                   Cuts: 223     6256         
*     0+    0                        25481.8469   104638.1304           310.64%
      0     0   103445.0539   207    25481.8469      Cuts: 87     6374  305.96%
      0     0   103268.9252   210    25481.8469     Cuts: 137     6473  305.26%
*     0+    0                        25481.8470   103268.9252           305.26%
      0     0   102485.6821   227    25481.8470     Cuts: 317     6654  302.19%
      0     0   102216.1891   237    25481.8470      Cuts: 88     6725  301.13%
      0     0   102189.0953   243    25481.8470      Cuts: 38     6749  301.03%
      0     0   102176.7881   243    25481.8470      Cuts: 17     6756  300.54%
      0     0   101964.7887   246    25481.8470      Cuts: 15     6787  300.15%
      0     0   101926.4922   240    25481.8470      Cuts: 45     6815  300.00%
      0     0   101926.4922   240    25481.8470      Cuts: 27     6828  300.00%
      0     0   101926.4922   177    25481.8470       Cuts: 8     6832  298.56%
      0     0   101579.6814   179    25481.8470      Cuts: 48     6874  298.56%
      0     0   101546.4568   181    25481.8470      Cuts: 28     6892  298.51%
      0     0   101542.8909   179    25481.8470       Cuts: 6     6897  298.49%
Repair heuristic found nothing.
      0    36    92953.6659   107    25481.8470  Impl Bds: 29     7852  291.31%
Elapsed time = 8.47 sec. (4235.79 ticks, tree = 0.02 MB, solutions = 2)
    442    68    91321.2450   113    25481.8470    98979.3722     8861  288.43%
    966   440    72966.2759    50    25481.8470    98979.3722    17335  288.43%
   1404   829    56721.3866    40    25481.8470    98979.3722    24866  288.43%
   1954  1182    81848.6149   129    25481.8470    98979.3722    35166  288.43%
   2508  1314        cutoff          25481.8470    98730.3223    41019  287.45%
   3032  1554        cutoff          25481.8470    96824.4341    48698  279.97%
   3651  2040        cutoff          25481.8470    96577.3979    65796  279.00%
   4324  2092    55613.7820    80    25481.8470    95569.4633    66552  275.05%
   4931  2904    72315.7462   110    25481.8470    93945.3829    88975  268.68%
   7374  4540    30042.9969    45    25481.8470    92611.2848   144633  263.44%
Elapsed time = 26.03 sec. (7337.35 ticks, tree = 36.05 MB, solutions = 2)
   8253  5298        cutoff          25481.8470    43338.7558   186530   70.08%
   9250    74    32483.1976    61    25481.8470    32483.1976   191749   27.48%
  10266   322    29037.8293    42    25481.8470    32213.6560   217312   26.42%
  11488   330    26475.6126    39    25481.8470    32000.9170   215745   25.58%
  14025   335    27357.5763    36    25481.8470    28141.1910   217570   10.44%
  15767   671        cutoff          25481.8470    28114.3894   256193   10.33%

GUB cover cuts applied:  1
Clique cuts applied:  6
Cover cuts applied:  5
Implied bound cuts applied:  46
Flow cuts applied:  151
Mixed integer rounding cuts applied:  20
Zero-half cuts applied:  2
Gomory fractional cuts applied:  3

Root node processing (before b&c):
  Real time             =    6.94 sec. (4198.95 ticks)
Parallel b&c, 32 threads:
  Real time             =   50.19 sec. (13956.13 ticks)
  Sync time (average)   =    6.57 sec.
  Wait time (average)   =    0.20 sec.
                          ------------
Total (root+branch&cut) =   57.13 sec. (18155.07 ticks)

Solution pool: 2 solutions saved.

MIP - Integer optimal, tolerance (0.05/1e-06):  Objective =  2.5481846972e+04
Current MIP best bound =  2.6755851611e+04 (gap = 1274, 5.00%)
Solution time =   57.17 sec.  Iterations = 272199  Nodes = 16060 (579)
Deterministic time = 18155.23 ticks  (317.55 ticks/sec)

CPLEX> Incumbent solution written to file 'C:\Users\llavin\Desktop\test85\logs\tmp9ykagsbf.cplex.sol'.
CPLEX> Exporting results... 
